c Generated map
c Size: 8 * 8, weights in range: 1 to 10, walls: True, with ratio 0.1
c dim 1 of 10
c
p sp 64 92
c graph contains 64 nodes and 92 arcs
c
a 1 9 1
a 9 1 1
a 3 11 9
a 11 3 9
a 3 4 9
a 4 3 9
a 4 12 7
a 12 4 7
a 4 5 8
a 5 4 8
a 5 6 5
a 6 5 5
a 6 14 1
a 14 6 1
a 8 16 1
a 16 8 1
a 9 17 2
a 17 9 2
a 11 12 3
a 12 11 3
a 12 20 9
a 20 12 9
a 14 22 9
a 22 14 9
a 14 15 7
a 15 14 7
a 15 23 3
a 23 15 3
a 15 16 1
a 16 15 1
a 16 24 3
a 24 16 3
a 17 25 4
a 25 17 4
a 17 18 8
a 18 17 8
a 18 26 6
a 26 18 6
a 20 28 3
a 28 20 3
a 20 21 4
a 21 20 4
a 21 29 6
a 29 21 6
a 21 22 3
a 22 21 3
a 22 30 4
a 30 22 4
a 22 23 7
a 23 22 7
a 23 31 9
a 31 23 9
a 23 24 7
a 24 23 7
a 24 32 7
a 32 24 7
a 25 33 7
a 33 25 7
a 25 26 3
a 26 25 3
a 26 34 7
a 34 26 7
a 26 27 10
a 27 26 10
a 27 35 5
a 35 27 5
a 27 28 3
a 28 27 3
a 28 36 1
a 36 28 1
a 28 29 2
a 29 28 2
a 29 37 5
a 37 29 5
a 29 30 7
a 30 29 7
a 30 38 5
a 38 30 5
a 30 31 10
a 31 30 10
a 31 39 7
a 39 31 7
a 31 32 2
a 32 31 2
a 32 40 3
a 40 32 3
a 33 41 5
a 41 33 5
a 33 34 5
a 34 33 5
a 34 42 9
a 42 34 9
a 34 35 5
a 35 34 5
a 35 43 4
a 43 35 4
a 35 36 4
a 36 35 4
a 36 44 1
a 44 36 1
a 36 37 3
a 37 36 3
a 37 45 4
a 45 37 4
a 37 38 4
a 38 37 4
a 38 46 4
a 46 38 4
a 38 39 10
a 39 38 10
a 39 47 7
a 47 39 7
a 39 40 5
a 40 39 5
a 40 48 5
a 48 40 5
a 41 49 8
a 49 41 8
a 41 42 3
a 42 41 3
a 42 50 2
a 50 42 2
a 42 43 1
a 43 42 1
a 43 51 1
a 51 43 1
a 43 44 7
a 44 43 7
a 44 52 10
a 52 44 10
a 44 45 1
a 45 44 1
a 45 53 2
a 53 45 2
a 45 46 10
a 46 45 10
a 46 54 3
a 54 46 3
a 46 47 9
a 47 46 9
a 47 55 2
a 55 47 2
a 47 48 6
a 48 47 6
a 48 56 7
a 56 48 7
a 49 57 5
a 57 49 5
a 49 50 1
a 50 49 1
a 50 51 6
a 51 50 6
a 51 59 6
a 59 51 6
a 51 52 6
a 52 51 6
a 52 60 6
a 60 52 6
a 52 53 8
a 53 52 8
a 53 61 2
a 61 53 2
a 53 54 8
a 54 53 8
a 54 62 8
a 62 54 8
a 54 55 8
a 55 54 8
a 55 63 8
a 63 55 8
a 55 56 5
a 56 55 5
a 56 64 6
a 64 56 6
a 59 60 9
a 60 59 9
a 60 61 10
a 61 60 10
a 61 62 7
a 62 61 7
a 62 63 7
a 63 62 7
a 63 64 10
a 64 63 10
